
Gurobi 9.5.2 (mac64[arm]) logging started Wed Apr 19 18:25:24 2023

Set parameter LogFile to value "Java/output/iterative_model/scenario_seed_2_nJob_20_machineCount_1/mip_increment_1/log.txt"
Gurobi Optimizer version 9.5.2 build v9.5.2rc0 (mac64[arm])
Thread count: 8 physical cores, 8 logical processors, using up to 8 threads
Optimize a model with 1026 rows, 2988 columns and 32230 nonzeros
Model fingerprint: 0x6313e74e
Variable types: 0 continuous, 2988 integer (2988 binary)
Coefficient statistics:
  Matrix range     [1e+00, 2e+02]
  Objective range  [1e+02, 3e+06]
  Bounds range     [1e+00, 1e+00]
  RHS range        [1e+00, 1e+00]
Presolve removed 390 rows and 626 columns
Presolve time: 0.07s
Presolved: 636 rows, 2362 columns, 22637 nonzeros
Variable types: 0 continuous, 2362 integer (2358 binary)

Root relaxation: objective 4.498541e+04, 313 iterations, 0.01 seconds (0.01 work units)

    Nodes    |    Current Node    |     Objective Bounds      |     Work
 Expl Unexpl |  Obj  Depth IntInf | Incumbent    BestBd   Gap | It/Node Time

     0     0 44985.4094    0   39          - 44985.4094      -     -    0s
H    0     0                    140560.00000 44985.4094  68.0%     -    0s
H    0     0                    139072.00000 44985.4094  67.7%     -    0s
     0     0 54583.5304    0   57 139072.000 54583.5304  60.8%     -    0s
     0     0 54583.5304    0   26 139072.000 54583.5304  60.8%     -    0s
H    0     0                    64720.000000 54583.5304  15.7%     -    0s
*    0     0               0    64640.000000 64640.0000  0.00%     -    0s

Cutting planes:
  Gomory: 11
  Cover: 7
  Clique: 18
  MIR: 7
  StrongCG: 4
  GUB cover: 2
  Zero half: 10
  RLT: 4
  Relax-and-lift: 2

Explored 1 nodes (1106 simplex iterations) in 0.17 seconds (0.31 work units)
Thread count was 8 (of 8 available processors)

Solution count 4: 64640 64720 139072 140560 

Optimal solution found (tolerance 1.00e-04)
Best objective 6.464000000000e+04, best bound 6.464000000000e+04, gap 0.0000%

Gurobi 9.5.2 (mac64[arm]) logging started Wed Apr 19 18:25:24 2023

Set parameter LogFile to value "Java/output/iterative_model/scenario_seed_2_nJob_20_machineCount_1/mip_increment_1/log.txt"
Gurobi Optimizer version 9.5.2 build v9.5.2rc0 (mac64[arm])
Thread count: 8 physical cores, 8 logical processors, using up to 8 threads
Optimize a model with 1026 rows, 2410 columns and 26086 nonzeros
Model fingerprint: 0xf644b320
Variable types: 0 continuous, 2410 integer (2410 binary)
Coefficient statistics:
  Matrix range     [1e+00, 2e+02]
  Objective range  [1e+02, 4e+05]
  Bounds range     [1e+00, 1e+00]
  RHS range        [1e+00, 1e+00]
Found heuristic solution: objective 974748.00000
Presolve removed 434 rows and 339 columns
Presolve time: 0.04s
Presolved: 592 rows, 2071 columns, 22386 nonzeros
Variable types: 0 continuous, 2071 integer (2071 binary)
Found heuristic solution: objective 820048.00000

Root relaxation: objective 3.543607e+03, 400 iterations, 0.01 seconds (0.01 work units)

    Nodes    |    Current Node    |     Objective Bounds      |     Work
 Expl Unexpl |  Obj  Depth IntInf | Incumbent    BestBd   Gap | It/Node Time

     0     0 3543.60673    0   37 820048.000 3543.60673   100%     -    0s
H    0     0                    486340.00000 3543.60673  99.3%     -    0s
H    0     0                    214208.00000 3543.60673  98.3%     -    0s
H    0     0                    147488.00000 3543.60673  97.6%     -    0s
H    0     0                    70608.000000 3543.60673  95.0%     -    0s
     0     0 4119.05882    0   24 70608.0000 4119.05882  94.2%     -    0s
H    0     0                    70564.000000 4119.05882  94.2%     -    0s
H    0     0                    14544.000000 4119.05882  71.7%     -    0s
H    0     0                    6964.0000000 4119.05882  40.9%     -    0s
     0     0 4146.97872    0   25 6964.00000 4146.97872  40.5%     -    0s
H    0     0                    6904.0000000 4146.97872  39.9%     -    0s
     0     0 4146.97872    0   40 6904.00000 4146.97872  39.9%     -    0s
H    0     0                    6900.0000000 4146.97872  39.9%     -    0s
H    0     0                    6844.0000000 4146.97872  39.4%     -    0s
     0     0 4194.00000    0   36 6844.00000 4194.00000  38.7%     -    0s
H    0     0                    4916.0000000 4194.00000  14.7%     -    0s
H    0     0                    4900.0000000 4194.00000  14.4%     -    0s
     0     0 4194.38192    0   36 4900.00000 4194.38192  14.4%     -    0s
H    0     0                    4640.0000000 4194.38192  9.60%     -    0s
     0     0 4203.80052    0   37 4640.00000 4203.80052  9.40%     -    0s
     0     0 4207.27273    0   46 4640.00000 4207.27273  9.33%     -    0s
     0     0 4208.50873    0   52 4640.00000 4208.50873  9.30%     -    0s
     0     0 4208.50873    0   52 4640.00000 4208.50873  9.30%     -    0s
     0     0 4267.00000    0   24 4640.00000 4267.00000  8.04%     -    0s
     0     0 4267.00000    0   18 4640.00000 4267.00000  8.04%     -    0s
H    0     0                    4408.0000000 4267.00000  3.20%     -    0s
H    0     0                    4304.0000000 4267.00000  0.86%     -    0s
*    0     0               0    4272.0000000 4272.00000  0.00%     -    0s

Cutting planes:
  Gomory: 1
  Cover: 1
  MIR: 3
  StrongCG: 1
  GUB cover: 2
  Zero half: 2

Explored 1 nodes (1783 simplex iterations) in 0.20 seconds (0.31 work units)
Thread count was 8 (of 8 available processors)

Solution count 10: 4272 4304 4408 ... 6904

Optimal solution found (tolerance 1.00e-04)
Best objective 4.272000000029e+03, best bound 4.272000000029e+03, gap 0.0000%

Gurobi 9.5.2 (mac64[arm]) logging started Wed Apr 19 18:25:25 2023

Set parameter LogFile to value "Java/output/iterative_model/scenario_seed_2_nJob_20_machineCount_1/mip_increment_1/log.txt"
Gurobi Optimizer version 9.5.2 build v9.5.2rc0 (mac64[arm])
Thread count: 8 physical cores, 8 logical processors, using up to 8 threads
Optimize a model with 1032 rows, 2062 columns and 23998 nonzeros
Model fingerprint: 0xf311a9fe
Variable types: 0 continuous, 2062 integer (2062 binary)
Coefficient statistics:
  Matrix range     [1e+00, 2e+02]
  Objective range  [6e+01, 7e+04]
  Bounds range     [1e+00, 1e+00]
  RHS range        [1e+00, 1e+00]
Presolve removed 559 rows and 491 columns
Presolve time: 0.04s
Presolved: 473 rows, 1571 columns, 17700 nonzeros
Variable types: 0 continuous, 1571 integer (1571 binary)

Root relaxation: objective 1.302621e+04, 723 iterations, 0.01 seconds (0.02 work units)

    Nodes    |    Current Node    |     Objective Bounds      |     Work
 Expl Unexpl |  Obj  Depth IntInf | Incumbent    BestBd   Gap | It/Node Time

     0     0 13026.2144    0   48          - 13026.2144      -     -    0s
H    0     0                    112612.00000 13026.2144  88.4%     -    0s
H    0     0                    104444.00000 13026.2144  87.5%     -    0s
H    0     0                    104193.00000 13026.2144  87.5%     -    0s
H    0     0                    92155.000000 13026.2144  85.9%     -    0s
H    0     0                    89834.000000 13026.2144  85.5%     -    0s
H    0     0                    66951.000000 13026.2144  80.5%     -    0s
     0     0 13139.2893    0   58 66951.0000 13139.2893  80.4%     -    0s
H    0     0                    34650.000000 13139.2893  62.1%     -    0s
H    0     0                    30722.000000 13139.2893  57.2%     -    0s
H    0     0                    29413.000000 13139.2893  55.3%     -    0s
H    0     0                    18655.000000 13139.2893  29.6%     -    0s
H    0     0                    17024.000000 13139.2893  22.8%     -    0s
     0     0 13139.2893    0   64 17024.0000 13139.2893  22.8%     -    0s
     0     0 13193.8179    0   94 17024.0000 13193.8179  22.5%     -    0s
     0     0 13193.8179    0   46 17024.0000 13193.8179  22.5%     -    0s
     0     0 13219.9602    0   75 17024.0000 13219.9602  22.3%     -    0s
     0     0 13400.0000    0   85 17024.0000 13400.0000  21.3%     -    0s
H    0     0                    13585.000000 13400.0000  1.36%     -    0s
     0     0 13519.3684    0   84 13585.0000 13519.3684  0.48%     -    0s
H    0     0                    13582.000000 13519.3684  0.46%     -    0s

Cutting planes:
  Gomory: 10
  Cover: 4
  Clique: 14
  MIR: 6
  StrongCG: 7
  GUB cover: 17
  Zero half: 8
  RLT: 4

Explored 1 nodes (2732 simplex iterations) in 0.24 seconds (0.36 work units)
Thread count was 8 (of 8 available processors)

Solution count 10: 13582 13585 17024 ... 92155

Optimal solution found (tolerance 1.00e-04)
Best objective 1.358200000000e+04, best bound 1.358200000000e+04, gap 0.0000%

Gurobi 9.5.2 (mac64[arm]) logging started Wed Apr 19 18:25:25 2023

Set parameter LogFile to value "Java/output/iterative_model/scenario_seed_2_nJob_20_machineCount_1/mip_increment_1/log.txt"
Gurobi Optimizer version 9.5.2 build v9.5.2rc0 (mac64[arm])
Thread count: 8 physical cores, 8 logical processors, using up to 8 threads
Optimize a model with 1092 rows, 9628 columns and 108176 nonzeros
Model fingerprint: 0x4a6cc97a
Variable types: 0 continuous, 9628 integer (9628 binary)
Coefficient statistics:
  Matrix range     [1e+00, 2e+02]
  Objective range  [4e+00, 3e+06]
  Bounds range     [1e+00, 1e+00]
  RHS range        [1e+00, 1e+00]

Warning: Completing partial solution with 9570 unfixed non-continuous variables out of 9628
User MIP start produced solution with objective 74341 (0.01s)
Loaded user MIP start with objective 74341

Presolve removed 59 rows and 1150 columns
Presolve time: 0.11s
Presolved: 1033 rows, 8478 columns, 94413 nonzeros
Variable types: 0 continuous, 8478 integer (8468 binary)

Root relaxation: objective 4.745445e+04, 6098 iterations, 0.25 seconds (0.51 work units)

    Nodes    |    Current Node    |     Objective Bounds      |     Work
 Expl Unexpl |  Obj  Depth IntInf | Incumbent    BestBd   Gap | It/Node Time

     0     0 47454.4503    0  159 74341.0000 47454.4503  36.2%     -    0s
     0     0 62640.7032    0  185 74341.0000 62640.7032  15.7%     -    0s
     0     0 67212.6706    0  125 74341.0000 67212.6706  9.59%     -    1s
     0     0 67382.5019    0  180 74341.0000 67382.5019  9.36%     -    1s
     0     0 67382.5019    0  171 74341.0000 67382.5019  9.36%     -    1s
     0     0 67518.6394    0  184 74341.0000 67518.6394  9.18%     -    1s
     0     0 67519.0413    0  190 74341.0000 67519.0413  9.18%     -    1s
     0     0 67519.0413    0  189 74341.0000 67519.0413  9.18%     -    1s
     0     0 68545.8965    0  207 74341.0000 68545.8965  7.80%     -    1s
H    0     0                    74317.000000 68545.8965  7.77%     -    1s
     0     0 68687.9205    0  220 74317.0000 68687.9205  7.57%     -    1s
     0     0 68689.6727    0  214 74317.0000 68689.6727  7.57%     -    1s
     0     0 68689.6946    0  209 74317.0000 68689.6946  7.57%     -    1s
     0     0 69322.5129    0  225 74317.0000 69322.5129  6.72%     -    2s
     0     0 69352.9464    0  232 74317.0000 69352.9464  6.68%     -    2s
     0     0 69356.1822    0  231 74317.0000 69356.1822  6.68%     -    2s
     0     0 69356.4921    0  237 74317.0000 69356.4921  6.67%     -    2s
     0     0 69631.9866    0  222 74317.0000 69631.9866  6.30%     -    2s
     0     0 69632.4457    0  247 74317.0000 69632.4457  6.30%     -    2s
     0     0 69817.1428    0  256 74317.0000 69817.1428  6.05%     -    2s
     0     0 70042.0567    0  261 74317.0000 70042.0567  5.75%     -    2s
     0     0 70082.5968    0  248 74317.0000 70082.5968  5.70%     -    2s
     0     0 70083.4042    0  244 74317.0000 70083.4042  5.70%     -    2s
     0     0 70518.9624    0  220 74317.0000 70518.9624  5.11%     -    2s
     0     0 70546.8147    0  250 74317.0000 70546.8147  5.07%     -    2s
     0     0 70550.5462    0  274 74317.0000 70550.5462  5.07%     -    2s
H    0     0                    74305.000000 70550.5462  5.05%     -    2s
     0     0 70550.5803    0  268 74305.0000 70550.5803  5.05%     -    2s
     0     0 70857.3226    0  301 74305.0000 70857.3226  4.64%     -    2s
     0     0 70960.2749    0  299 74305.0000 70960.2749  4.50%     -    2s
     0     0 70975.3980    0  303 74305.0000 70975.3980  4.48%     -    2s
     0     0 70975.5033    0  278 74305.0000 70975.5033  4.48%     -    2s
     0     0 71200.1920    0  286 74305.0000 71200.1920  4.18%     -    3s
     0     0 71377.4607    0  249 74305.0000 71377.4607  3.94%     -    3s
     0     0 71393.0101    0  240 74305.0000 71393.0101  3.92%     -    3s
     0     0 71400.9043    0  255 74305.0000 71400.9043  3.91%     -    3s
     0     0 71406.3365    0  266 74305.0000 71406.3365  3.90%     -    3s
     0     0 71414.5739    0  256 74305.0000 71414.5739  3.89%     -    3s
     0     0 71414.5739    0  256 74305.0000 71414.5739  3.89%     -    3s
     0     0 72139.4361    0  284 74305.0000 72139.4361  2.91%     -    3s
     0     0 72192.0951    0  273 74305.0000 72192.0951  2.84%     -    3s
     0     0 72199.4378    0  282 74305.0000 72199.4378  2.83%     -    3s
     0     0 72201.1349    0  292 74305.0000 72201.1349  2.83%     -    3s
H    0     0                    74291.000000 72201.1349  2.81%     -    3s
     0     0 72817.7070    0  311 74291.0000 72817.7070  1.98%     -    3s
     0     0 72848.2181    0  302 74291.0000 72848.2181  1.94%     -    3s
     0     0 72850.6162    0  321 74291.0000 72850.6162  1.94%     -    3s
     0     0 73178.5848    0  297 74291.0000 73178.5848  1.50%     -    3s
     0     0 73178.5848    0  147 74291.0000 73178.5848  1.50%     -    3s
     0     0 73178.5848    0  218 74291.0000 73178.5848  1.50%     -    4s
     0     0 73362.9995    0  226 74291.0000 73362.9995  1.25%     -    4s
     0     0 73483.8860    0  257 74291.0000 73483.8860  1.09%     -    4s
     0     0 73567.7022    0  252 74291.0000 73567.7022  0.97%     -    4s
     0     0 73592.2968    0  255 74291.0000 73592.2968  0.94%     -    4s
     0     0 73601.1077    0  258 74291.0000 73601.1077  0.93%     -    4s
     0     0 73601.8339    0  256 74291.0000 73601.8339  0.93%     -    4s
     0     0 73862.6489    0  294 74291.0000 73862.6489  0.58%     -    4s
     0     0 73913.8521    0  281 74291.0000 73913.8521  0.51%     -    4s
     0     0 73921.8984    0  253 74291.0000 73921.8984  0.50%     -    4s
     0     0 73923.3573    0  267 74291.0000 73923.3573  0.49%     -    4s
     0     0 74101.5587    0  301 74291.0000 74101.5587  0.25%     -    4s
     0     0 74190.6448    0  247 74291.0000 74190.6448  0.14%     -    4s
     0     0 74196.2896    0  247 74291.0000 74196.2896  0.13%     -    4s
     0     0 74197.7805    0  263 74291.0000 74197.7805  0.13%     -    4s
     0     0 74215.0000    0   58 74291.0000 74215.0000  0.10%     -    4s
     0     0 74215.0000    0   82 74291.0000 74215.0000  0.10%     -    4s
     0     0 74215.0000    0   82 74291.0000 74215.0000  0.10%     -    4s
     0     0 74215.0000    0   91 74291.0000 74215.0000  0.10%     -    4s
     0     0 74215.0000    0   76 74291.0000 74215.0000  0.10%     -    4s
     0     0 74218.2000    0   71 74291.0000 74218.2000  0.10%     -    4s
     0     0 74218.2000    0   67 74291.0000 74218.2000  0.10%     -    4s
     0     0 74220.1429    0   90 74291.0000 74220.1429  0.10%     -    4s
     0     0 74221.0511    0   55 74291.0000 74221.0511  0.09%     -    4s
     0     0 74221.0511    0   55 74291.0000 74221.0511  0.09%     -    5s
H    0     0                    74251.000000 74221.0511  0.04%     -    5s
     0     0 74227.0000    0   34 74251.0000 74227.0000  0.03%     -    5s
     0     0 74227.0000    0   66 74251.0000 74227.0000  0.03%     -    5s
H    0     0                    74227.000000 74227.0000  0.00%     -    5s
     0     0 74227.0000    0   66 74227.0000 74227.0000  0.00%     -    5s

Cutting planes:
  Clique: 6
  MIR: 3
  StrongCG: 1
  GUB cover: 6
  Zero half: 1

Explored 1 nodes (60089 simplex iterations) in 5.07 seconds (9.26 work units)
Thread count was 8 (of 8 available processors)

Solution count 8: 74227 74251 74291 ... 74341

Optimal solution found (tolerance 1.00e-04)
Best objective 7.422700000000e+04, best bound 7.422700000000e+04, gap 0.0000%
